<number of tasks>
50

<cycle time>
1000

<order strength>
0.196


<task times>
1 483
2 345
3 456
4 152
5 209
6 145
7 450
8 115
9 197
10 318
11 71
12 98
13 24
14 509
15 485
16 200
17 150
18 93
19 84
20 152
21 175
22 534
23 84
24 234
25 260
26 220
27 521
28 176
29 501
30 508
31 198
32 377
33 249
34 445
35 162
36 128
37 62
38 103
39 504
40 84
41 241
42 460
43 273
44 200
45 109
46 310
47 366
48 206
49 352
50 160

<precedence relations>
1,41
2,42
4,21
4,49
5,12
7,23
8,10
8,29
9,11
9,13
10,16
10,18
11,14
11,15
11,18
11,19
13,17
13,20
13,32
14,25
15,21
15,49
16,26
18,23
18,28
18,34
18,37
19,22
19,24
20,27
20,45
21,29
21,30
22,32
22,35
23,46
24,31
25,33
25,34
25,36
25,42
29,37
29,42
30,37
30,41
32,38
32,39
33,40
34,43
38,45
42,44
42,46
43,45
44,47
44,50
45,48
45,49

<end>
